\ Generated by MPModelProtoExporter
\   Name             : 
\   Format           : Free
\   Constraints      : 186
\   Variables        : 163
\     Binary         : 0
\     Integer        : 0
\     Continuous     : 163
Minimize
 Obj: -1 Area_slack +0.2 Gen_up_3@bus5_gen_6_delta +1 Gen_up_4@bus7_gen_8_delta +1 pftk_16_branch_8 +1 pftk_17_branch_9 -1 pftk_21_branch_7 +100000 n_1_overload1__9_Line_10_@_4_branch_15 +100000 n_1_overload2_9_Line_10_@_4_branch_15 +100000 n_1_overload1__9_Line_10_@_5_branch_16 +100000 n_1_overload2_9_Line_10_@_5_branch_16 +100000 n_1_overload1__9_Line_10_@_6_branch_17 +100000 n_1_overload2_9_Line_10_@_6_branch_17 +100000 n_1_overload1__9_Line_10_@_19_branch_14 +100000 n_1_overload2_9_Line_10_@_19_branch_14 +100000 n_1_overload1__10_branch_0_@_11_branch_1 +100000 n_1_overload2_10_branch_0_@_11_branch_1 +100000 n_1_overload1__10_branch_0_@_17_branch_9 +100000 n_1_overload2_10_branch_0_@_17_branch_9 +100000 n_1_overload1__11_branch_1_@_0_branch_6 +100000 n_1_overload2_11_branch_1_@_0_branch_6 +100000 n_1_overload1__11_branch_1_@_10_branch_0 +100000 n_1_overload2_11_branch_1_@_10_branch_0 +100000 n_1_overload1__11_branch_1_@_12_branch_2 +100000 n_1_overload2_11_branch_1_@_12_branch_2 +100000 n_1_overload1__11_branch_1_@_13_branch_3 +100000 n_1_overload2_11_branch_1_@_13_branch_3 +100000 n_1_overload1__11_branch_1_@_14_branch_4 +100000 n_1_overload2_11_branch_1_@_14_branch_4 +100000 n_1_overload1__11_branch_1_@_15_branch_5 +100000 n_1_overload2_11_branch_1_@_15_branch_5 +100000 n_1_overload1__13_branch_3_@_1_branch_10 +100000 n_1_overload2_13_branch_3_@_1_branch_10 +100000 n_1_overload1__13_branch_3_@_8_branch_19 +100000 n_1_overload2_13_branch_3_@_8_branch_19 +100000 n_1_overload1__13_branch_3_@_9_Line_10 +100000 n_1_overload2_13_branch_3_@_9_Line_10 +100000 n_1_overload1__13_branch_3_@_11_branch_1 +100000 n_1_overload2_13_branch_3_@_11_branch_1 +100000 n_1_overload1__13_branch_3_@_12_branch_2 +100000 n_1_overload2_13_branch_3_@_12_branch_2 +100000 n_1_overload1__13_branch_3_@_14_branch_4 +100000 n_1_overload2_13_branch_3_@_14_branch_4 +100000 n_1_overload1__13_branch_3_@_15_branch_5 +100000 n_1_overload2_13_branch_3_@_15_branch_5 +100000 n_1_overload1__13_branch_3_@_17_branch_9 +100000 n_1_overload2_13_branch_3_@_17_branch_9 +100000 n_1_overload1__13_branch_3_@_21_branch_7 +100000 n_1_overload2_13_branch_3_@_21_branch_7 +100000 n_1_overload1__14_branch_4_@_0_branch_6 +100000 n_1_overload2_14_branch_4_@_0_branch_6 +100000 n_1_overload1__14_branch_4_@_4_branch_15 +100000 n_1_overload2_14_branch_4_@_4_branch_15 +100000 n_1_overload1__14_branch_4_@_6_branch_17 +100000 n_1_overload2_14_branch_4_@_6_branch_17 +100000 n_1_overload1__14_branch_4_@_11_branch_1 +100000 n_1_overload2_14_branch_4_@_11_branch_1 +100000 n_1_overload1__14_branch_4_@_12_branch_2 +100000 n_1_overload2_14_branch_4_@_12_branch_2 +100000 n_1_overload1__14_branch_4_@_13_branch_3 +100000 n_1_overload2_14_branch_4_@_13_branch_3 +100000 n_1_overload1__14_branch_4_@_15_branch_5 +100000 n_1_overload2_14_branch_4_@_15_branch_5 +100000 n_1_overload1__15_branch_5_@_11_branch_1 +100000 n_1_overload2_15_branch_5_@_11_branch_1 +100000 n_1_overload1__15_branch_5_@_13_branch_3 +100000 n_1_overload2_15_branch_5_@_13_branch_3 +100000 n_1_overload1__15_branch_5_@_14_branch_4 +100000 n_1_overload2_15_branch_5_@_14_branch_4 +100000 n_1_overload1__15_branch_5_@_17_branch_9 +100000 n_1_overload2_15_branch_5_@_17_branch_9 +100000 n_1_overload1__16_branch_8_@_0_branch_6 +100000 n_1_overload2_16_branch_8_@_0_branch_6 +100000 n_1_overload1__16_branch_8_@_1_branch_10 +100000 n_1_overload2_16_branch_8_@_1_branch_10 +100000 n_1_overload1__16_branch_8_@_3_branch_12 +100000 n_1_overload2_16_branch_8_@_3_branch_12 +100000 n_1_overload1__16_branch_8_@_8_branch_19 +100000 n_1_overload2_16_branch_8_@_8_branch_19 +100000 n_1_overload1__16_branch_8_@_17_branch_9 +100000 n_1_overload2_16_branch_8_@_17_branch_9 +100000 n_1_overload1__16_branch_8_@_19_branch_14 +100000 n_1_overload2_16_branch_8_@_19_branch_14 +100000 n_1_overload1__17_branch_9_@_4_branch_15 +100000 n_1_overload2_17_branch_9_@_4_branch_15 +100000 n_1_overload1__17_branch_9_@_5_branch_16 +100000 n_1_overload2_17_branch_9_@_5_branch_16 +100000 n_1_overload1__17_branch_9_@_6_branch_17 +100000 n_1_overload2_17_branch_9_@_6_branch_17 +100000 n_1_overload1__17_branch_9_@_16_branch_8 +100000 n_1_overload2_17_branch_9_@_16_branch_8 +100000 n_1_overload1__17_branch_9_@_19_branch_14 +100000 n_1_overload2_17_branch_9_@_19_branch_14 +100000 n_1_overload1__19_branch_14_@_0_branch_6 +100000 n_1_overload2_19_branch_14_@_0_branch_6 +100000 n_1_overload1__19_branch_14_@_1_branch_10 +100000 n_1_overload2_19_branch_14_@_1_branch_10 +100000 n_1_overload1__19_branch_14_@_3_branch_12 +100000 n_1_overload2_19_branch_14_@_3_branch_12 +100000 n_1_overload1__19_branch_14_@_8_branch_19 +100000 n_1_overload2_19_branch_14_@_8_branch_19 +100000 n_1_overload1__19_branch_14_@_9_Line_10 +100000 n_1_overload2_19_branch_14_@_9_Line_10 +100000 n_1_overload1__19_branch_14_@_16_branch_8 +100000 n_1_overload2_19_branch_14_@_16_branch_8 +100000 n_1_overload1__19_branch_14_@_17_branch_9 +100000 n_1_overload2_19_branch_14_@_17_branch_9 +100000 n_1_overload1__19_branch_14_@_21_branch_7 +100000 n_1_overload2_19_branch_14_@_21_branch_7 +100000 n_1_overload1__21_branch_7_@_4_branch_15 +100000 n_1_overload2_21_branch_7_@_4_branch_15 +100000 n_1_overload1__21_branch_7_@_5_branch_16 +100000 n_1_overload2_21_branch_7_@_5_branch_16 +100000 n_1_overload1__21_branch_7_@_6_branch_17 +100000 n_1_overload2_21_branch_7_@_6_branch_17 +100000 n_1_overload1__21_branch_7_@_19_branch_14 +100000 n_1_overload2_21_branch_7_@_19_branch_14 +1 hvdc_control1_0_HVDC_Line +1 hvdc_control2_0_HVDC_Line -1 hvdc_flow_0_HVDC_Line 
Subject to
 Delta_equal_to_proportional_power_shift_Gen_up_3@bus5_gen_6: -0.730754 Area_slack +1 Gen_up_3@bus5_gen_6_delta  = 0
 auto_c_000000001: +1 Gen_up_3@bus5_gen_6 -1 Gen_up_3@bus5_gen_6_delta  = 0.592888
 Delta_equal_to_proportional_power_shift_Gen_up_4@bus7_gen_8: -0.269246 Area_slack +1 Gen_up_4@bus7_gen_8_delta  = 0
 auto_c_000000003: +1 Gen_up_4@bus7_gen_8 -1 Gen_up_4@bus7_gen_8_delta  = 0.218449
 Delta_down_gen0: +0.333333 Area_slack +1 Gen_down_0@bus0_gen_1_delta  = 0
 auto_c_000000005: +1 Gen_down_0@bus0_gen_1 -1 Gen_down_0@bus0_gen_1_delta  = 0.592888
 Delta_down_gen1: +0.333333 Area_slack +1 Gen_down_1@bus1_gen_2_delta  = 0
 auto_c_000000007: +1 Gen_down_1@bus1_gen_2 -1 Gen_down_1@bus1_gen_2_delta  = 0.592888
 Delta_down_gen2: +0.333333 Area_slack +1 Gen_down_2@bus2_gen_3_delta  = 0
 auto_c_000000009: +1 Gen_down_2@bus2_gen_3 -1 Gen_down_2@bus2_gen_3_delta  = 0.592888
 Strict_area_equality_1: -1 Area_slack +1 Gen_up_3@bus5_gen_6_delta +1 Gen_up_4@bus7_gen_8_delta  = 0
 Strict_area_equality_2: +1 Area_slack +1 Gen_down_0@bus0_gen_1_delta +1 Gen_down_1@bus1_gen_2_delta +1 Gen_down_2@bus2_gen_3_delta  = 0
 reference_bus_angle_zero_0_Bus_1_____HV: +1 theta_0_Bus_1_____HV  = 0
 branch_power_flow_0_branch_6: -23.7473 theta_3_Bus_4_____HV +23.7473 theta_4_Bus_5_____HV +1 pftk_0_branch_6  = 0
 branch_power_flow_1_branch_10: -5.02765 theta_5_Bus_6_____LV +5.02765 theta_10_Bus_11____LV +1 pftk_1_branch_10  = 0
 branch_power_flow_2_branch_11: -3.90915 theta_5_Bus_6_____LV +3.90915 theta_11_Bus_12____LV +1 pftk_2_branch_11  = 0
 branch_power_flow_3_branch_12: -7.67636 theta_5_Bus_6_____LV +7.67636 theta_12_Bus_13____LV +1 pftk_3_branch_12  = 0
 branch_power_flow_4_branch_15: -11.8343 theta_8_Bus_9_____LV +11.8343 theta_9_Bus_10____LV +1 pftk_4_branch_15  = 0
 branch_power_flow_5_branch_16: -3.6985 theta_8_Bus_9_____LV +3.6985 theta_13_Bus_14____LV +1 pftk_5_branch_16  = 0
 branch_power_flow_6_branch_17: -5.20644 theta_9_Bus_10____LV +5.20644 theta_10_Bus_11____LV +1 pftk_6_branch_17  = 0
 branch_power_flow_7_branch_18: -5.003 theta_11_Bus_12____LV +5.003 theta_12_Bus_13____LV +1 pftk_7_branch_18  = 0
 branch_power_flow_8_branch_19: -2.8734 theta_12_Bus_13____LV +2.8734 theta_13_Bus_14____LV +1 pftk_8_branch_19  = 0
 branch_power_flow_9_Line_10: +1000 theta_3_Bus_4_____HV -1000 theta_15_Bus_15_HV +1 pftk_9_Line_10  = 0
 ft_rating_9_Line_10: +1 pftk_9_Line_10  <= 0.2
 tf_rating_9_Line_10: +1 pftk_9_Line_10  >= -0.2
 branch_power_flow_10_branch_0: -16.9005 theta_0_Bus_1_____HV +16.9005 theta_1_Bus_2_____HV +1 pftk_10_branch_0  = 0
 ft_rating_10_branch_0: +1 pftk_10_branch_0  <= 2
 tf_rating_10_branch_0: +1 pftk_10_branch_0  >= -2
 branch_power_flow_11_branch_1: -4.4835 theta_0_Bus_1_____HV +4.4835 theta_4_Bus_5_____HV +1 pftk_11_branch_1  = 0
 ft_rating_11_branch_1: +1 pftk_11_branch_1  <= 1
 tf_rating_11_branch_1: +1 pftk_11_branch_1  >= -1
 branch_power_flow_12_branch_2: -5.05127 theta_1_Bus_2_____HV +5.05127 theta_2_Bus_3_____HV +1 pftk_12_branch_2  = 0
 branch_power_flow_13_branch_3: -5.67151 theta_1_Bus_2_____HV +5.67151 theta_3_Bus_4_____HV +1 pftk_13_branch_3  = 0
 ft_rating_13_branch_3: +1 pftk_13_branch_3  <= 1
 tf_rating_13_branch_3: +1 pftk_13_branch_3  >= -1
 branch_power_flow_14_branch_4: -5.75109 theta_1_Bus_2_____HV +5.75109 theta_4_Bus_5_____HV +1 pftk_14_branch_4  = 0
 ft_rating_14_branch_4: +1 pftk_14_branch_4  <= 0.8
 tf_rating_14_branch_4: +1 pftk_14_branch_4  >= -0.8
 branch_power_flow_15_branch_5: -5.84693 theta_2_Bus_3_____HV +5.84693 theta_3_Bus_4_____HV +1 pftk_15_branch_5  = 0
 ft_rating_15_branch_5: +1 pftk_15_branch_5  <= 0.5
 tf_rating_15_branch_5: +1 pftk_15_branch_5  >= -0.5
 phase_shifter_power_flow_16_branch_8: -1.79798 theta_3_Bus_4_____HV +1.79798 theta_8_Bus_9_____LV +1 pftk_16_branch_8 -1.79798 phase_shift_16_branch_8  = 0
 ft_rating_16_branch_8: +1 pftk_16_branch_8  <= 0.5
 tf_rating_16_branch_8: +1 pftk_16_branch_8  >= -0.5
 branch_power_flow_17_branch_9: -3.96794 theta_4_Bus_5_____HV +3.96794 theta_5_Bus_6_____LV +1 pftk_17_branch_9  = 0
 ft_rating_17_branch_9: +1 pftk_17_branch_9  <= 0.8
 tf_rating_17_branch_9: +1 pftk_17_branch_9  >= -0.8
 branch_power_flow_18_branch_13: -5.67698 theta_6_Bus_7_____ZV +5.67698 theta_7_Bus_8_____TV +1 pftk_18_branch_13  = 0
 ft_rating_18_branch_13: +1 pftk_18_branch_13  <= 0.5
 tf_rating_18_branch_13: +1 pftk_18_branch_13  >= -0.5
 branch_power_flow_19_branch_14: -9.09008 theta_6_Bus_7_____ZV +9.09008 theta_8_Bus_9_____LV +1 pftk_19_branch_14  = 0
 ft_rating_19_branch_14: +1 pftk_19_branch_14  <= 0.5
 tf_rating_19_branch_14: +1 pftk_19_branch_14  >= -0.5
 branch_power_flow_20_Transformer_12: +200 theta_4_Bus_5_____HV -200 theta_14_Bus_14_HV +1 pftk_20_Transformer_12  = 0
 branch_power_flow_21_branch_7: -4.78194 theta_6_Bus_7_____ZV +4.78194 theta_15_Bus_15_HV +1 pftk_21_branch_7  = 0
 ft_rating_21_branch_7: +1 pftk_21_branch_7  <= 0.2
 tf_rating_21_branch_7: +1 pftk_21_branch_7  >= -0.2
 n_1_ft_rating_9_Line_10_@_4_branch_15: +0.37912 pftk_4_branch_15 +1 pftk_9_Line_10  <= 0.2
 n_1_tf_rating_9_Line_10_@_4_branch_15: +0.37912 pftk_4_branch_15 +1 pftk_9_Line_10  >= -0.2
 n_1_ft_rating_9_Line_10_@_5_branch_16: +0.315079 pftk_5_branch_16 +1 pftk_9_Line_10  <= 0.2
 n_1_tf_rating_9_Line_10_@_5_branch_16: +0.315079 pftk_5_branch_16 +1 pftk_9_Line_10  >= -0.2
 n_1_ft_rating_9_Line_10_@_6_branch_17: +0.37912 pftk_6_branch_17 +1 pftk_9_Line_10  <= 0.2
 n_1_tf_rating_9_Line_10_@_6_branch_17: +0.37912 pftk_6_branch_17 +1 pftk_9_Line_10  >= -0.2
 n_1_ft_rating_9_Line_10_@_19_branch_14: +1 pftk_9_Line_10 +1 pftk_19_branch_14  <= 0.2
 n_1_tf_rating_9_Line_10_@_19_branch_14: +1 pftk_9_Line_10 +1 pftk_19_branch_14  >= -0.2
 n_1_ft_rating_10_branch_0_@_11_branch_1: +1 pftk_10_branch_0 +1 pftk_11_branch_1  <= 2
 n_1_tf_rating_10_branch_0_@_11_branch_1: +1 pftk_10_branch_0 +1 pftk_11_branch_1  >= -2
 n_1_ft_rating_10_branch_0_@_17_branch_9: +1 pftk_10_branch_0 +0.0596783 pftk_17_branch_9  <= 2
 n_1_tf_rating_10_branch_0_@_17_branch_9: +1 pftk_10_branch_0 +0.0596783 pftk_17_branch_9  >= -2
 n_1_ft_rating_11_branch_1_@_0_branch_6: +0.290082 pftk_0_branch_6 +1 pftk_11_branch_1  <= 1
 n_1_tf_rating_11_branch_1_@_0_branch_6: +0.290082 pftk_0_branch_6 +1 pftk_11_branch_1  >= -1
 n_1_ft_rating_11_branch_1_@_10_branch_0: +1 pftk_10_branch_0 +1 pftk_11_branch_1  <= 1
 n_1_tf_rating_11_branch_1_@_10_branch_0: +1 pftk_10_branch_0 +1 pftk_11_branch_1  >= -1
 n_1_ft_rating_11_branch_1_@_12_branch_2: +1 pftk_11_branch_1 +0.207663 pftk_12_branch_2  <= 1
 n_1_tf_rating_11_branch_1_@_12_branch_2: +1 pftk_11_branch_1 +0.207663 pftk_12_branch_2  >= -1
 n_1_ft_rating_11_branch_1_@_13_branch_3: +1 pftk_11_branch_1 +0.272431 pftk_13_branch_3  <= 1
 n_1_tf_rating_11_branch_1_@_13_branch_3: +1 pftk_11_branch_1 +0.272431 pftk_13_branch_3  >= -1
 n_1_ft_rating_11_branch_1_@_14_branch_4: +1 pftk_11_branch_1 +0.360517 pftk_14_branch_4  <= 1
 n_1_tf_rating_11_branch_1_@_14_branch_4: +1 pftk_11_branch_1 +0.360517 pftk_14_branch_4  >= -1
 n_1_ft_rating_11_branch_1_@_15_branch_5: +1 pftk_11_branch_1 +0.207663 pftk_15_branch_5  <= 1
 n_1_tf_rating_11_branch_1_@_15_branch_5: +1 pftk_11_branch_1 +0.207663 pftk_15_branch_5  >= -1
 n_1_ft_rating_13_branch_3_@_1_branch_10: +0.0640114 pftk_1_branch_10 +1 pftk_13_branch_3  <= 1
 n_1_tf_rating_13_branch_3_@_1_branch_10: +0.0640114 pftk_1_branch_10 +1 pftk_13_branch_3  >= -1
 n_1_ft_rating_13_branch_3_@_8_branch_19: +0.0531986 pftk_8_branch_19 +1 pftk_13_branch_3  <= 1
 n_1_tf_rating_13_branch_3_@_8_branch_19: +0.0531986 pftk_8_branch_19 +1 pftk_13_branch_3  >= -1
 n_1_ft_rating_13_branch_3_@_9_Line_10: +0.0521023 pftk_9_Line_10 +1 pftk_13_branch_3  <= 1
 n_1_tf_rating_13_branch_3_@_9_Line_10: +0.0521023 pftk_9_Line_10 +1 pftk_13_branch_3  >= -1
 n_1_ft_rating_13_branch_3_@_11_branch_1: +0.353352 pftk_11_branch_1 +1 pftk_13_branch_3  <= 1
 n_1_tf_rating_13_branch_3_@_11_branch_1: +0.353352 pftk_11_branch_1 +1 pftk_13_branch_3  >= -1
 n_1_ft_rating_13_branch_3_@_12_branch_2: +0.455297 pftk_12_branch_2 +1 pftk_13_branch_3  <= 1
 n_1_tf_rating_13_branch_3_@_12_branch_2: +0.455297 pftk_12_branch_2 +1 pftk_13_branch_3  >= -1
 n_1_ft_rating_13_branch_3_@_14_branch_4: +1 pftk_13_branch_3 +0.432717 pftk_14_branch_4  <= 1
 n_1_tf_rating_13_branch_3_@_14_branch_4: +1 pftk_13_branch_3 +0.432717 pftk_14_branch_4  >= -1
 n_1_ft_rating_13_branch_3_@_15_branch_5: +1 pftk_13_branch_3 +0.455297 pftk_15_branch_5  <= 1
 n_1_tf_rating_13_branch_3_@_15_branch_5: +1 pftk_13_branch_3 +0.455297 pftk_15_branch_5  >= -1
 n_1_ft_rating_13_branch_3_@_17_branch_9: +1 pftk_13_branch_3 +0.105923 pftk_17_branch_9  <= 1
 n_1_tf_rating_13_branch_3_@_17_branch_9: +1 pftk_13_branch_3 +0.105923 pftk_17_branch_9  >= -1
 n_1_ft_rating_13_branch_3_@_21_branch_7: +1 pftk_13_branch_3 +0.0521023 pftk_21_branch_7  <= 1
 n_1_tf_rating_13_branch_3_@_21_branch_7: +1 pftk_13_branch_3 +0.0521023 pftk_21_branch_7  >= -1
 n_1_ft_rating_14_branch_4_@_0_branch_6: +0.470808 pftk_0_branch_6 +1 pftk_14_branch_4  <= 0.8
 n_1_tf_rating_14_branch_4_@_0_branch_6: +0.470808 pftk_0_branch_6 +1 pftk_14_branch_4  >= -0.8
 n_1_ft_rating_14_branch_4_@_4_branch_15: +0.0585335 pftk_4_branch_15 +1 pftk_14_branch_4  <= 0.8
 n_1_tf_rating_14_branch_4_@_4_branch_15: +0.0585335 pftk_4_branch_15 +1 pftk_14_branch_4  >= -0.8
 n_1_ft_rating_14_branch_4_@_6_branch_17: +0.0585335 pftk_6_branch_17 +1 pftk_14_branch_4  <= 0.8
 n_1_tf_rating_14_branch_4_@_6_branch_17: +0.0585335 pftk_6_branch_17 +1 pftk_14_branch_4  >= -0.8
 n_1_ft_rating_14_branch_4_@_11_branch_1: +0.477805 pftk_11_branch_1 +1 pftk_14_branch_4  <= 0.8
 n_1_tf_rating_14_branch_4_@_11_branch_1: +0.477805 pftk_11_branch_1 +1 pftk_14_branch_4  >= -0.8
 n_1_ft_rating_14_branch_4_@_12_branch_2: +0.33704 pftk_12_branch_2 +1 pftk_14_branch_4  <= 0.8
 n_1_tf_rating_14_branch_4_@_12_branch_2: +0.33704 pftk_12_branch_2 +1 pftk_14_branch_4  >= -0.8
 n_1_ft_rating_14_branch_4_@_13_branch_3: +0.44216 pftk_13_branch_3 +1 pftk_14_branch_4  <= 0.8
 n_1_tf_rating_14_branch_4_@_13_branch_3: +0.44216 pftk_13_branch_3 +1 pftk_14_branch_4  >= -0.8
 n_1_ft_rating_14_branch_4_@_15_branch_5: +1 pftk_14_branch_4 +0.33704 pftk_15_branch_5  <= 0.8
 n_1_tf_rating_14_branch_4_@_15_branch_5: +1 pftk_14_branch_4 +0.33704 pftk_15_branch_5  >= -0.8
 n_1_ft_rating_15_branch_5_@_11_branch_1: +0.168843 pftk_11_branch_1 +1 pftk_15_branch_5  <= 0.5
 n_1_tf_rating_15_branch_5_@_11_branch_1: +0.168843 pftk_11_branch_1 +1 pftk_15_branch_5  >= -0.5
 n_1_ft_rating_15_branch_5_@_13_branch_3: +0.285409 pftk_13_branch_3 +1 pftk_15_branch_5  <= 0.5
 n_1_tf_rating_15_branch_5_@_13_branch_3: +0.285409 pftk_13_branch_3 +1 pftk_15_branch_5  >= -0.5
 n_1_ft_rating_15_branch_5_@_14_branch_4: +0.206766 pftk_14_branch_4 +1 pftk_15_branch_5  <= 0.5
 n_1_tf_rating_15_branch_5_@_14_branch_4: +0.206766 pftk_14_branch_4 +1 pftk_15_branch_5  >= -0.5
 n_1_ft_rating_15_branch_5_@_17_branch_9: +1 pftk_15_branch_5 +0.0506136 pftk_17_branch_9  <= 0.5
 n_1_tf_rating_15_branch_5_@_17_branch_9: +1 pftk_15_branch_5 +0.0506136 pftk_17_branch_9  >= -0.5
 n_1_ft_rating_16_branch_8_@_0_branch_6: +0.0891039 pftk_0_branch_6 +1 pftk_16_branch_8  <= 0.5
 n_1_tf_rating_16_branch_8_@_0_branch_6: +0.0891039 pftk_0_branch_6 +1 pftk_16_branch_8  >= -0.5
 n_1_ft_rating_16_branch_8_@_1_branch_10: +0.225198 pftk_1_branch_10 +1 pftk_16_branch_8  <= 0.5
 n_1_tf_rating_16_branch_8_@_1_branch_10: +0.225198 pftk_1_branch_10 +1 pftk_16_branch_8  >= -0.5
 n_1_ft_rating_16_branch_8_@_3_branch_12: +0.0650658 pftk_3_branch_12 +1 pftk_16_branch_8  <= 0.5
 n_1_tf_rating_16_branch_8_@_3_branch_12: +0.0650658 pftk_3_branch_12 +1 pftk_16_branch_8  >= -0.5
 n_1_ft_rating_16_branch_8_@_8_branch_19: +0.187157 pftk_8_branch_19 +1 pftk_16_branch_8  <= 0.5
 n_1_tf_rating_16_branch_8_@_8_branch_19: +0.187157 pftk_8_branch_19 +1 pftk_16_branch_8  >= -0.5
 n_1_ft_rating_16_branch_8_@_17_branch_9: +1 pftk_16_branch_8 +0.372648 pftk_17_branch_9  <= 0.5
 n_1_tf_rating_16_branch_8_@_17_branch_9: +1 pftk_16_branch_8 +0.372648 pftk_17_branch_9  >= -0.5
 n_1_ft_rating_16_branch_8_@_19_branch_14: +1 pftk_16_branch_8 +0.508114 pftk_19_branch_14  <= 0.5
 n_1_tf_rating_16_branch_8_@_19_branch_14: +1 pftk_16_branch_8 +0.508114 pftk_19_branch_14  >= -0.5
 n_1_ft_rating_17_branch_9_@_4_branch_15: +0.604318 pftk_4_branch_15 +1 pftk_17_branch_9  <= 0.8
 n_1_tf_rating_17_branch_9_@_4_branch_15: +0.604318 pftk_4_branch_15 +1 pftk_17_branch_9  >= -0.8
 n_1_ft_rating_17_branch_9_@_5_branch_16: +0.502237 pftk_5_branch_16 +1 pftk_17_branch_9  <= 0.8
 n_1_tf_rating_17_branch_9_@_5_branch_16: +0.502237 pftk_5_branch_16 +1 pftk_17_branch_9  >= -0.8
 n_1_ft_rating_17_branch_9_@_6_branch_17: +0.604318 pftk_6_branch_17 +1 pftk_17_branch_9  <= 0.8
 n_1_tf_rating_17_branch_9_@_6_branch_17: +0.604318 pftk_6_branch_17 +1 pftk_17_branch_9  >= -0.8
 n_1_ft_rating_17_branch_9_@_16_branch_8: +0.365092 pftk_16_branch_8 +1 pftk_17_branch_9  <= 0.8
 n_1_tf_rating_17_branch_9_@_16_branch_8: +0.365092 pftk_16_branch_8 +1 pftk_17_branch_9  >= -0.8
 n_1_ft_rating_17_branch_9_@_19_branch_14: +1 pftk_17_branch_9 +0.491886 pftk_19_branch_14  <= 0.8
 n_1_tf_rating_17_branch_9_@_19_branch_14: +1 pftk_17_branch_9 +0.491886 pftk_19_branch_14  >= -0.8
 n_1_ft_rating_19_branch_14_@_0_branch_6: +0.150006 pftk_0_branch_6 +1 pftk_19_branch_14  <= 0.5
 n_1_tf_rating_19_branch_14_@_0_branch_6: +0.150006 pftk_0_branch_6 +1 pftk_19_branch_14  >= -0.5
 n_1_ft_rating_19_branch_14_@_1_branch_10: +0.37912 pftk_1_branch_10 +1 pftk_19_branch_14  <= 0.5
 n_1_tf_rating_19_branch_14_@_1_branch_10: +0.37912 pftk_1_branch_10 +1 pftk_19_branch_14  >= -0.5
 n_1_ft_rating_19_branch_14_@_3_branch_12: +0.109538 pftk_3_branch_12 +1 pftk_19_branch_14  <= 0.5
 n_1_tf_rating_19_branch_14_@_3_branch_12: +0.109538 pftk_3_branch_12 +1 pftk_19_branch_14  >= -0.5
 n_1_ft_rating_19_branch_14_@_8_branch_19: +0.315079 pftk_8_branch_19 +1 pftk_19_branch_14  <= 0.5
 n_1_tf_rating_19_branch_14_@_8_branch_19: +0.315079 pftk_8_branch_19 +1 pftk_19_branch_14  >= -0.5
 n_1_ft_rating_19_branch_14_@_9_Line_10: +1 pftk_9_Line_10 +1 pftk_19_branch_14  <= 0.5
 n_1_tf_rating_19_branch_14_@_9_Line_10: +1 pftk_9_Line_10 +1 pftk_19_branch_14  >= -0.5
 n_1_ft_rating_19_branch_14_@_16_branch_8: +0.634908 pftk_16_branch_8 +1 pftk_19_branch_14  <= 0.5
 n_1_tf_rating_19_branch_14_@_16_branch_8: +0.634908 pftk_16_branch_8 +1 pftk_19_branch_14  >= -0.5
 n_1_ft_rating_19_branch_14_@_17_branch_9: +0.627352 pftk_17_branch_9 +1 pftk_19_branch_14  <= 0.5
 n_1_tf_rating_19_branch_14_@_17_branch_9: +0.627352 pftk_17_branch_9 +1 pftk_19_branch_14  >= -0.5
 n_1_ft_rating_19_branch_14_@_21_branch_7: +1 pftk_19_branch_14 +1 pftk_21_branch_7  <= 0.5
 n_1_tf_rating_19_branch_14_@_21_branch_7: +1 pftk_19_branch_14 +1 pftk_21_branch_7  >= -0.5
 n_1_ft_rating_21_branch_7_@_4_branch_15: +0.37912 pftk_4_branch_15 +1 pftk_21_branch_7  <= 0.2
 n_1_tf_rating_21_branch_7_@_4_branch_15: +0.37912 pftk_4_branch_15 +1 pftk_21_branch_7  >= -0.2
 n_1_ft_rating_21_branch_7_@_5_branch_16: +0.315079 pftk_5_branch_16 +1 pftk_21_branch_7  <= 0.2
 n_1_tf_rating_21_branch_7_@_5_branch_16: +0.315079 pftk_5_branch_16 +1 pftk_21_branch_7  >= -0.2
 n_1_ft_rating_21_branch_7_@_6_branch_17: +0.37912 pftk_6_branch_17 +1 pftk_21_branch_7  <= 0.2
 n_1_tf_rating_21_branch_7_@_6_branch_17: +0.37912 pftk_6_branch_17 +1 pftk_21_branch_7  >= -0.2
 n_1_ft_rating_21_branch_7_@_19_branch_14: +1 pftk_19_branch_14 +1 pftk_21_branch_7  <= 0.2
 n_1_tf_rating_21_branch_7_@_19_branch_14: +1 pftk_19_branch_14 +1 pftk_21_branch_7  >= -0.2
 hvdc_power_flow_0_HVDC_Line: -208.333 theta_10_Bus_11____LV +208.333 theta_14_Bus_14_HV +1 hvdc_flow_0_HVDC_Line  = 0.05
 hvdc_ft_rating_0_HVDC_Line: +1 hvdc_flow_0_HVDC_Line  <= 10
 hvdc_tf_rating_0_HVDC_Line: +1 hvdc_flow_0_HVDC_Line  >= -10
 Node_power_balance_0_Bus_1_____HV: -1 Gen_down_0@bus0_gen_1 +21.384 theta_0_Bus_1_____HV -16.9005 theta_1_Bus_2_____HV -4.4835 theta_4_Bus_5_____HV  = 0
 Node_power_balance_1_Bus_2_____HV: -1 Gen_down_1@bus1_gen_2 -16.9005 theta_0_Bus_1_____HV +33.3743 theta_1_Bus_2_____HV -5.05127 theta_2_Bus_3_____HV -5.67151 theta_3_Bus_4_____HV -5.75109 theta_4_Bus_5_____HV  = -0.217
 Node_power_balance_2_Bus_3_____HV: -1 Gen_down_2@bus2_gen_3 -5.05127 theta_1_Bus_2_____HV +10.8982 theta_2_Bus_3_____HV -5.84693 theta_3_Bus_4_____HV  = -0.942
 Node_power_balance_3_Bus_4_____HV: -5.67151 theta_1_Bus_2_____HV -5.84693 theta_2_Bus_3_____HV +1037.12 theta_3_Bus_4_____HV -23.7473 theta_4_Bus_5_____HV -1.8555 theta_8_Bus_9_____LV -1000 theta_15_Bus_15_HV  = -0.478
 Node_power_balance_4_Bus_5_____HV: -4.4835 theta_0_Bus_1_____HV -5.75109 theta_1_Bus_2_____HV -23.7473 theta_3_Bus_4_____HV +238.239 theta_4_Bus_5_____HV -4.25745 theta_5_Bus_6_____LV -200 theta_14_Bus_14_HV  = -0.076
 Node_power_balance_5_Bus_6_____LV: -1 Gen_up_3@bus5_gen_6 -4.25745 theta_4_Bus_5_____HV +20.8706 theta_5_Bus_6_____LV -5.02765 theta_10_Bus_11____LV -3.90915 theta_11_Bus_12____LV -7.67636 theta_12_Bus_13____LV  = -0.112
 Node_power_balance_6_Bus_7_____ZV: +19.549 theta_6_Bus_7_____ZV -5.67698 theta_7_Bus_8_____TV -9.09008 theta_8_Bus_9_____LV -4.78194 theta_15_Bus_15_HV  = 0
 Node_power_balance_7_Bus_8_____TV: -1 Gen_up_4@bus7_gen_8 -5.67698 theta_6_Bus_7_____ZV +5.67698 theta_7_Bus_8_____TV  = 0
 Node_power_balance_8_Bus_9_____LV: -1.8555 theta_3_Bus_4_____HV -9.09008 theta_6_Bus_7_____ZV +26.4784 theta_8_Bus_9_____LV -11.8343 theta_9_Bus_10____LV -3.6985 theta_13_Bus_14____LV  = -0.295
 Node_power_balance_9_Bus_10____LV: -11.8343 theta_8_Bus_9_____LV +17.0408 theta_9_Bus_10____LV -5.20644 theta_10_Bus_11____LV  = -0.09
 Node_power_balance_10_Bus_11____LV: -5.02765 theta_5_Bus_6_____LV -5.20644 theta_9_Bus_10____LV +10.2341 theta_10_Bus_11____LV +1 hvdc_flow_0_HVDC_Line  = -0.035
 Node_power_balance_11_Bus_12____LV: -3.90915 theta_5_Bus_6_____LV +8.91215 theta_11_Bus_12____LV -5.003 theta_12_Bus_13____LV  = -0.061
 Node_power_balance_12_Bus_13____LV: -7.67636 theta_5_Bus_6_____LV -5.003 theta_11_Bus_12____LV +15.5528 theta_12_Bus_13____LV -2.8734 theta_13_Bus_14____LV  = -0.135
 Node_power_balance_13_Bus_14____LV: -3.6985 theta_8_Bus_9_____LV -2.8734 theta_12_Bus_13____LV +6.5719 theta_13_Bus_14____LV  = -0.149
 Node_power_balance_14_Bus_14_HV: -200 theta_4_Bus_5_____HV +200 theta_14_Bus_14_HV -1 hvdc_flow_0_HVDC_Line  = 0
 Node_power_balance_15_Bus_15_HV: -1000 theta_3_Bus_4_____HV -4.78194 theta_6_Bus_7_____ZV +1004.78 theta_15_Bus_15_HV  = 0
Bounds
 0 <= Area_slack
 Gen_up_3@bus5_gen_6 free
 0 <= Gen_up_3@bus5_gen_6_delta
 Gen_up_4@bus7_gen_8 free
 0 <= Gen_up_4@bus7_gen_8_delta
 Gen_down_0@bus0_gen_1 free
 -0.592888 <= Gen_down_0@bus0_gen_1_delta <= 0
 Gen_down_1@bus1_gen_2 free
 -0.592888 <= Gen_down_1@bus1_gen_2_delta <= 0
 Gen_down_2@bus2_gen_3 free
 -0.592888 <= Gen_down_2@bus2_gen_3_delta <= 0
 -6.28 <= theta_0_Bus_1_____HV <= 6.28
 -6.28 <= theta_1_Bus_2_____HV <= 6.28
 -6.28 <= theta_2_Bus_3_____HV <= 6.28
 -6.28 <= theta_3_Bus_4_____HV <= 6.28
 -6.28 <= theta_4_Bus_5_____HV <= 6.28
 -6.28 <= theta_5_Bus_6_____LV <= 6.28
 -6.28 <= theta_6_Bus_7_____ZV <= 6.28
 -6.28 <= theta_7_Bus_8_____TV <= 6.28
 -6.28 <= theta_8_Bus_9_____LV <= 6.28
 -6.28 <= theta_9_Bus_10____LV <= 6.28
 -6.28 <= theta_10_Bus_11____LV <= 6.28
 -6.28 <= theta_11_Bus_12____LV <= 6.28
 -6.28 <= theta_12_Bus_13____LV <= 6.28
 -6.28 <= theta_13_Bus_14____LV <= 6.28
 -6.28 <= theta_14_Bus_14_HV <= 6.28
 -6.28 <= theta_15_Bus_15_HV <= 6.28
 pftk_0_branch_6 free
 pftk_1_branch_10 free
 pftk_2_branch_11 free
 pftk_3_branch_12 free
 pftk_4_branch_15 free
 pftk_5_branch_16 free
 pftk_6_branch_17 free
 pftk_7_branch_18 free
 pftk_8_branch_19 free
 pftk_9_Line_10 free
 pftk_10_branch_0 free
 pftk_11_branch_1 free
 pftk_12_branch_2 free
 pftk_13_branch_3 free
 pftk_14_branch_4 free
 pftk_15_branch_5 free
 pftk_16_branch_8 free
 -6.28 <= phase_shift_16_branch_8 <= 6.28
 pftk_17_branch_9 free
 pftk_18_branch_13 free
 pftk_19_branch_14 free
 pftk_20_Transformer_12 free
 pftk_21_branch_7 free
 0 <= n_1_overload1__9_Line_10_@_4_branch_15
 0 <= n_1_overload2_9_Line_10_@_4_branch_15
 0 <= n_1_overload1__9_Line_10_@_5_branch_16
 0 <= n_1_overload2_9_Line_10_@_5_branch_16
 0 <= n_1_overload1__9_Line_10_@_6_branch_17
 0 <= n_1_overload2_9_Line_10_@_6_branch_17
 0 <= n_1_overload1__9_Line_10_@_19_branch_14
 0 <= n_1_overload2_9_Line_10_@_19_branch_14
 0 <= n_1_overload1__10_branch_0_@_11_branch_1
 0 <= n_1_overload2_10_branch_0_@_11_branch_1
 0 <= n_1_overload1__10_branch_0_@_17_branch_9
 0 <= n_1_overload2_10_branch_0_@_17_branch_9
 0 <= n_1_overload1__11_branch_1_@_0_branch_6
 0 <= n_1_overload2_11_branch_1_@_0_branch_6
 0 <= n_1_overload1__11_branch_1_@_10_branch_0
 0 <= n_1_overload2_11_branch_1_@_10_branch_0
 0 <= n_1_overload1__11_branch_1_@_12_branch_2
 0 <= n_1_overload2_11_branch_1_@_12_branch_2
 0 <= n_1_overload1__11_branch_1_@_13_branch_3
 0 <= n_1_overload2_11_branch_1_@_13_branch_3
 0 <= n_1_overload1__11_branch_1_@_14_branch_4
 0 <= n_1_overload2_11_branch_1_@_14_branch_4
 0 <= n_1_overload1__11_branch_1_@_15_branch_5
 0 <= n_1_overload2_11_branch_1_@_15_branch_5
 0 <= n_1_overload1__13_branch_3_@_1_branch_10
 0 <= n_1_overload2_13_branch_3_@_1_branch_10
 0 <= n_1_overload1__13_branch_3_@_8_branch_19
 0 <= n_1_overload2_13_branch_3_@_8_branch_19
 0 <= n_1_overload1__13_branch_3_@_9_Line_10
 0 <= n_1_overload2_13_branch_3_@_9_Line_10
 0 <= n_1_overload1__13_branch_3_@_11_branch_1
 0 <= n_1_overload2_13_branch_3_@_11_branch_1
 0 <= n_1_overload1__13_branch_3_@_12_branch_2
 0 <= n_1_overload2_13_branch_3_@_12_branch_2
 0 <= n_1_overload1__13_branch_3_@_14_branch_4
 0 <= n_1_overload2_13_branch_3_@_14_branch_4
 0 <= n_1_overload1__13_branch_3_@_15_branch_5
 0 <= n_1_overload2_13_branch_3_@_15_branch_5
 0 <= n_1_overload1__13_branch_3_@_17_branch_9
 0 <= n_1_overload2_13_branch_3_@_17_branch_9
 0 <= n_1_overload1__13_branch_3_@_21_branch_7
 0 <= n_1_overload2_13_branch_3_@_21_branch_7
 0 <= n_1_overload1__14_branch_4_@_0_branch_6
 0 <= n_1_overload2_14_branch_4_@_0_branch_6
 0 <= n_1_overload1__14_branch_4_@_4_branch_15
 0 <= n_1_overload2_14_branch_4_@_4_branch_15
 0 <= n_1_overload1__14_branch_4_@_6_branch_17
 0 <= n_1_overload2_14_branch_4_@_6_branch_17
 0 <= n_1_overload1__14_branch_4_@_11_branch_1
 0 <= n_1_overload2_14_branch_4_@_11_branch_1
 0 <= n_1_overload1__14_branch_4_@_12_branch_2
 0 <= n_1_overload2_14_branch_4_@_12_branch_2
 0 <= n_1_overload1__14_branch_4_@_13_branch_3
 0 <= n_1_overload2_14_branch_4_@_13_branch_3
 0 <= n_1_overload1__14_branch_4_@_15_branch_5
 0 <= n_1_overload2_14_branch_4_@_15_branch_5
 0 <= n_1_overload1__15_branch_5_@_11_branch_1
 0 <= n_1_overload2_15_branch_5_@_11_branch_1
 0 <= n_1_overload1__15_branch_5_@_13_branch_3
 0 <= n_1_overload2_15_branch_5_@_13_branch_3
 0 <= n_1_overload1__15_branch_5_@_14_branch_4
 0 <= n_1_overload2_15_branch_5_@_14_branch_4
 0 <= n_1_overload1__15_branch_5_@_17_branch_9
 0 <= n_1_overload2_15_branch_5_@_17_branch_9
 0 <= n_1_overload1__16_branch_8_@_0_branch_6
 0 <= n_1_overload2_16_branch_8_@_0_branch_6
 0 <= n_1_overload1__16_branch_8_@_1_branch_10
 0 <= n_1_overload2_16_branch_8_@_1_branch_10
 0 <= n_1_overload1__16_branch_8_@_3_branch_12
 0 <= n_1_overload2_16_branch_8_@_3_branch_12
 0 <= n_1_overload1__16_branch_8_@_8_branch_19
 0 <= n_1_overload2_16_branch_8_@_8_branch_19
 0 <= n_1_overload1__16_branch_8_@_17_branch_9
 0 <= n_1_overload2_16_branch_8_@_17_branch_9
 0 <= n_1_overload1__16_branch_8_@_19_branch_14
 0 <= n_1_overload2_16_branch_8_@_19_branch_14
 0 <= n_1_overload1__17_branch_9_@_4_branch_15
 0 <= n_1_overload2_17_branch_9_@_4_branch_15
 0 <= n_1_overload1__17_branch_9_@_5_branch_16
 0 <= n_1_overload2_17_branch_9_@_5_branch_16
 0 <= n_1_overload1__17_branch_9_@_6_branch_17
 0 <= n_1_overload2_17_branch_9_@_6_branch_17
 0 <= n_1_overload1__17_branch_9_@_16_branch_8
 0 <= n_1_overload2_17_branch_9_@_16_branch_8
 0 <= n_1_overload1__17_branch_9_@_19_branch_14
 0 <= n_1_overload2_17_branch_9_@_19_branch_14
 0 <= n_1_overload1__19_branch_14_@_0_branch_6
 0 <= n_1_overload2_19_branch_14_@_0_branch_6
 0 <= n_1_overload1__19_branch_14_@_1_branch_10
 0 <= n_1_overload2_19_branch_14_@_1_branch_10
 0 <= n_1_overload1__19_branch_14_@_3_branch_12
 0 <= n_1_overload2_19_branch_14_@_3_branch_12
 0 <= n_1_overload1__19_branch_14_@_8_branch_19
 0 <= n_1_overload2_19_branch_14_@_8_branch_19
 0 <= n_1_overload1__19_branch_14_@_9_Line_10
 0 <= n_1_overload2_19_branch_14_@_9_Line_10
 0 <= n_1_overload1__19_branch_14_@_16_branch_8
 0 <= n_1_overload2_19_branch_14_@_16_branch_8
 0 <= n_1_overload1__19_branch_14_@_17_branch_9
 0 <= n_1_overload2_19_branch_14_@_17_branch_9
 0 <= n_1_overload1__19_branch_14_@_21_branch_7
 0 <= n_1_overload2_19_branch_14_@_21_branch_7
 0 <= n_1_overload1__21_branch_7_@_4_branch_15
 0 <= n_1_overload2_21_branch_7_@_4_branch_15
 0 <= n_1_overload1__21_branch_7_@_5_branch_16
 0 <= n_1_overload2_21_branch_7_@_5_branch_16
 0 <= n_1_overload1__21_branch_7_@_6_branch_17
 0 <= n_1_overload2_21_branch_7_@_6_branch_17
 0 <= n_1_overload1__21_branch_7_@_19_branch_14
 0 <= n_1_overload2_21_branch_7_@_19_branch_14
 0 <= hvdc_control1_0_HVDC_Line
 0 <= hvdc_control2_0_HVDC_Line
 -10 <= hvdc_flow_0_HVDC_Line <= 10
End
